(set-info :smt-lib-version 2.6)
(set-logic QF_S)
(set-info :source |
Generated by: Murphy Berzish, Mitja Kulczynski, Federico Mora, Florin Manea, Joel Day, Dirk Nowotka, Vijay Ganesh, Zhengyang Lu
Generated on: 2020-10-01
Description: Translated from a collection of real-world regex queries, AutomataArk, collected by Loris D’Antoni and Fang Wang: https://github.com/lorisdanto/automatark
Application: Evaluate solvers on real-world regex queries
Target solver: Z3str3RE, CVC4, OSTRICH, Z3seq, Z3str3, Z3-Trau
Publications: Berzish, M., Kulczynski, M., Mora, F., Manea, F., Day, J. D., Nowotka, D., & Ganesh, V. (2021, July). An SMT solver for regular expressions and linear arithmetic over string length. In CAV 2021.
|)
(set-info :license "https://creativecommons.org/licenses/by/4.0/")
(set-info :category "industrial")
(set-info :status sat)

(declare-const X String)
(assert (not (str.in_re X (str.to_re "nethttp://supremetoolbarPORT=\u{a}"))))
(assert (not (str.in_re X (re.++ (re.union (str.to_re "A") (str.to_re "a") (str.to_re "W") (str.to_re "K") (str.to_re "k") (str.to_re "N") (str.to_re "n")) (re.opt (re.union (re.range "a" "z") (re.range "A" "Z"))) (re.range "0" "9") ((_ re.loop 1 3) (re.union (re.range "a" "z") (re.range "A" "Z"))) (str.to_re "\u{a}")))))
(assert (not (str.in_re X (re.++ (re.union (re.++ (re.union (str.to_re "0") (str.to_re "128") (str.to_re "192") (str.to_re "224") (str.to_re "240") (str.to_re "248") (str.to_re "252") (str.to_re "254")) re.allchar (str.to_re "0") re.allchar (str.to_re "0") re.allchar (str.to_re "0")) (re.++ (str.to_re "255") re.allchar (re.union (str.to_re "0") (str.to_re "128") (str.to_re "192") (str.to_re "224") (str.to_re "240") (str.to_re "248") (str.to_re "252") (str.to_re "254")) re.allchar (str.to_re "0") re.allchar (str.to_re "0")) (re.++ (str.to_re "255") re.allchar (str.to_re "255") re.allchar (re.union (str.to_re "0") (str.to_re "128") (str.to_re "192") (str.to_re "224") (str.to_re "240") (str.to_re "248") (str.to_re "252") (str.to_re "254")) re.allchar (str.to_re "0")) (re.++ (str.to_re "255") re.allchar (str.to_re "255") re.allchar (str.to_re "255") re.allchar (re.union (str.to_re "0") (str.to_re "128") (str.to_re "192") (str.to_re "224") (str.to_re "240") (str.to_re "248") (str.to_re "252") (str.to_re "254")))) (str.to_re "\u{a}")))))
(assert (str.in_re X (re.++ ((_ re.loop 4 4) (re.range "0" "9")) ((_ re.loop 0 2) (re.union (str.to_re " ") (str.to_re "\u{9}") (str.to_re "\u{a}") (str.to_re "\u{c}") (str.to_re "\u{d}"))) ((_ re.loop 2 2) (re.union (re.range "a" "z") (re.range "A" "z"))) (str.to_re "\u{a}"))))
(check-sat)

(exit)
